c nIsolatedPIs 0
c maxPI 32
p cnf 151 358
c gate 33 -15 -31 0
-15 -33 0
-31 -33 0
15 31 33 0
c gate 34 13 29 0
13 -34 0
29 -34 0
-13 -29 34 0
c gate 35 14 30 0
14 -35 0
30 -35 0
-14 -30 35 0
c gate 36 -34 -35 0
-34 -36 0
-35 -36 0
34 35 36 0
c gate 37 -13 -29 0
-13 -37 0
-29 -37 0
13 29 37 0
c gate 38 -12 -28 0
-12 -38 0
-28 -38 0
12 28 38 0
c gate 39 -37 -38 0
-37 -39 0
-38 -39 0
37 38 39 0
c gate 40 11 27 0
11 -40 0
27 -40 0
-11 -27 40 0
c gate 41 12 28 0
12 -41 0
28 -41 0
-12 -28 41 0
c gate 42 -40 -41 0
-40 -42 0
-41 -42 0
40 41 42 0
c gate 43 -11 -27 0
-11 -43 0
-27 -43 0
11 27 43 0
c gate 44 -10 -26 0
-10 -44 0
-26 -44 0
10 26 44 0
c gate 45 -43 -44 0
-43 -45 0
-44 -45 0
43 44 45 0
c gate 46 9 25 0
9 -46 0
25 -46 0
-9 -25 46 0
c gate 47 10 26 0
10 -47 0
26 -47 0
-10 -26 47 0
c gate 48 -46 -47 0
-46 -48 0
-47 -48 0
46 47 48 0
c gate 49 -8 -24 0
-8 -49 0
-24 -49 0
8 24 49 0
c gate 50 -9 -25 0
-9 -50 0
-25 -50 0
9 25 50 0
c gate 51 -49 -50 0
-49 -51 0
-50 -51 0
49 50 51 0
c gate 52 -7 -23 0
-7 -52 0
-23 -52 0
7 23 52 0
c gate 53 -6 -22 0
-6 -53 0
-22 -53 0
6 22 53 0
c gate 54 6 22 0
6 -54 0
22 -54 0
-6 -22 54 0
c gate 55 -5 -21 0
-5 -55 0
-21 -55 0
5 21 55 0
c gate 56 5 21 0
5 -56 0
21 -56 0
-5 -21 56 0
c gate 57 -4 -20 0
-4 -57 0
-20 -57 0
4 20 57 0
c gate 58 4 20 0
4 -58 0
20 -58 0
-4 -20 58 0
c gate 59 -3 -19 0
-3 -59 0
-19 -59 0
3 19 59 0
c gate 60 3 19 0
3 -60 0
19 -60 0
-3 -19 60 0
c gate 61 1 17 0
1 -61 0
17 -61 0
-1 -17 61 0
c gate 62 2 61 0
2 -62 0
61 -62 0
-2 -61 62 0
c gate 63 -18 -62 0
-18 -63 0
-62 -63 0
18 62 63 0
c gate 64 -2 -61 0
-2 -64 0
-61 -64 0
2 61 64 0
c gate 65 -63 -64 0
-63 -65 0
-64 -65 0
63 64 65 0
c gate 66 -60 -65 0
-60 -66 0
-65 -66 0
60 65 66 0
c gate 67 -59 -66 0
-59 -67 0
-66 -67 0
59 66 67 0
c gate 68 -58 -67 0
-58 -68 0
-67 -68 0
58 67 68 0
c gate 69 -57 -68 0
-57 -69 0
-68 -69 0
57 68 69 0
c gate 70 -56 -69 0
-56 -70 0
-69 -70 0
56 69 70 0
c gate 71 -55 -70 0
-55 -71 0
-70 -71 0
55 70 71 0
c gate 72 -54 -71 0
-54 -72 0
-71 -72 0
54 71 72 0
c gate 73 -53 -72 0
-53 -73 0
-72 -73 0
53 72 73 0
c gate 74 -52 73 0
-52 -74 0
73 -74 0
52 -73 74 0
c gate 75 7 23 0
7 -75 0
23 -75 0
-7 -23 75 0
c gate 76 8 24 0
8 -76 0
24 -76 0
-8 -24 76 0
c gate 77 -75 -76 0
-75 -77 0
-76 -77 0
75 76 77 0
c gate 78 -74 77 0
-74 -78 0
77 -78 0
74 -77 78 0
c gate 79 51 -78 0
51 -79 0
-78 -79 0
-51 78 79 0
c gate 80 48 -79 0
48 -80 0
-79 -80 0
-48 79 80 0
c gate 81 45 -80 0
45 -81 0
-80 -81 0
-45 80 81 0
c gate 82 42 -81 0
42 -82 0
-81 -82 0
-42 81 82 0
c gate 83 39 -82 0
39 -83 0
-82 -83 0
-39 82 83 0
c gate 84 36 -83 0
36 -84 0
-83 -84 0
-36 83 84 0
c gate 85 -33 -84 0
-33 -85 0
-84 -85 0
33 84 85 0
c gate 86 52 -76 0
52 -86 0
-76 -86 0
-52 76 86 0
c gate 87 51 -86 0
51 -87 0
-86 -87 0
-51 86 87 0
c gate 88 48 -87 0
48 -88 0
-87 -88 0
-48 87 88 0
c gate 89 45 -88 0
45 -89 0
-88 -89 0
-45 88 89 0
c gate 90 42 -89 0
42 -90 0
-89 -90 0
-42 89 90 0
c gate 91 39 -90 0
39 -91 0
-90 -91 0
-39 90 91 0
c gate 92 36 -91 0
36 -92 0
-91 -92 0
-36 91 92 0
c gate 93 16 -32 0
16 -93 0
-32 -93 0
-16 32 93 0
c gate 94 -16 32 0
-16 -94 0
32 -94 0
16 -32 94 0
c gate 95 -93 -94 0
-93 -95 0
-94 -95 0
93 94 95 0
c gate 96 -14 -30 0
-14 -96 0
-30 -96 0
14 30 96 0
c gate 97 15 31 0
15 -97 0
31 -97 0
-15 -31 97 0
c gate 98 -33 -97 0
-33 -98 0
-97 -98 0
33 97 98 0
c gate 99 -96 98 0
-96 -99 0
98 -99 0
96 -98 99 0
c gate 100 -95 99 0
-95 -100 0
99 -100 0
95 -99 100 0
c gate 101 -92 100 0
-92 -101 0
100 -101 0
92 -100 101 0
c gate 102 -85 101 0
-85 -102 0
101 -102 0
85 -101 102 0
c gate 103 -49 -76 0
-49 -103 0
-76 -103 0
49 76 103 0
c gate 104 -52 -75 0
-52 -104 0
-75 -104 0
52 75 104 0
c gate 105 -73 104 0
-73 -105 0
104 -105 0
73 -104 105 0
c gate 106 3 -19 0
3 -106 0
-19 -106 0
-3 19 106 0
c gate 107 -2 18 0
-2 -107 0
18 -107 0
2 -18 107 0
c gate 108 2 -18 0
2 -108 0
-18 -108 0
-2 18 108 0
c gate 109 -1 17 0
-1 -109 0
17 -109 0
1 -17 109 0
c gate 110 -108 109 0
-108 -110 0
109 -110 0
108 -109 110 0
c gate 111 -107 -110 0
-107 -111 0
-110 -111 0
107 110 111 0
c gate 112 -106 -111 0
-106 -112 0
-111 -112 0
106 111 112 0
c gate 113 -4 20 0
-4 -113 0
20 -113 0
4 -20 113 0
c gate 114 -3 19 0
-3 -114 0
19 -114 0
3 -19 114 0
c gate 115 -113 -114 0
-113 -115 0
-114 -115 0
113 114 115 0
c gate 116 -112 115 0
-112 -116 0
115 -116 0
112 -115 116 0
c gate 117 4 -20 0
4 -117 0
-20 -117 0
-4 20 117 0
c gate 118 5 -21 0
5 -118 0
-21 -118 0
-5 21 118 0
c gate 119 -117 -118 0
-117 -119 0
-118 -119 0
117 118 119 0
c gate 120 -116 119 0
-116 -120 0
119 -120 0
116 -119 120 0
c gate 121 -6 22 0
-6 -121 0
22 -121 0
6 -22 121 0
c gate 122 -5 21 0
-5 -122 0
21 -122 0
5 -21 122 0
c gate 123 -121 -122 0
-121 -123 0
-122 -123 0
121 122 123 0
c gate 124 -120 123 0
-120 -124 0
123 -124 0
120 -123 124 0
c gate 125 6 -22 0
6 -125 0
-22 -125 0
-6 22 125 0
c gate 126 7 -23 0
7 -126 0
-23 -126 0
-7 23 126 0
c gate 127 -125 -126 0
-125 -127 0
-126 -127 0
125 126 127 0
c gate 128 -124 127 0
-124 -128 0
127 -128 0
124 -127 128 0
c gate 129 -7 23 0
-7 -129 0
23 -129 0
7 -23 129 0
c gate 130 -103 -129 0
-103 -130 0
-129 -130 0
103 129 130 0
c gate 131 -128 130 0
-128 -131 0
130 -131 0
128 -130 131 0
c gate 132 8 -24 0
8 -132 0
-24 -132 0
-8 24 132 0
c gate 133 95 -98 0
95 -133 0
-98 -133 0
-95 98 133 0
c gate 134 -35 -96 0
-35 -134 0
-96 -134 0
35 96 134 0
c gate 135 -34 -37 0
-34 -135 0
-37 -135 0
34 37 135 0
c gate 136 -38 -41 0
-38 -136 0
-41 -136 0
38 41 136 0
c gate 137 -135 -136 0
-135 -137 0
-136 -137 0
135 136 137 0
c gate 138 -134 137 0
-134 -138 0
137 -138 0
134 -137 138 0
c gate 139 133 138 0
133 -139 0
138 -139 0
-133 -138 139 0
c gate 140 -132 -139 0
-132 -140 0
-139 -140 0
132 139 140 0
c gate 141 -44 -47 0
-44 -141 0
-47 -141 0
44 47 141 0
c gate 142 -40 -43 0
-40 -142 0
-43 -142 0
40 43 142 0
c gate 143 -46 -50 0
-46 -143 0
-50 -143 0
46 50 143 0
c gate 144 -142 -143 0
-142 -144 0
-143 -144 0
142 143 144 0
c gate 145 -141 144 0
-141 -145 0
144 -145 0
141 -144 145 0
c gate 146 -140 145 0
-140 -146 0
145 -146 0
140 -145 146 0
c gate 147 131 -146 0
131 -147 0
-146 -147 0
-131 146 147 0
c gate 148 -102 -147 0
-102 -148 0
-147 -148 0
102 147 148 0
c gate 149 105 -148 0
105 -149 0
-148 -149 0
-105 148 149 0
c gate 150 -103 149 0
-103 -150 0
149 -150 0
103 -149 150 0
c gate 151 -102 -150 0
-102 -151 0
-150 -151 0
102 150 151 0
c PO
-151 0
